c This is the WCNF input
p wcnf 354 1535 721
721 -82 105 0
721 -83 105 0
721 -84 108 0
721 -79 105 0
721 -81 105 0
721 -80 103 0
721 -322 327 0
721 -323 327 0
721 -324 330 0
721 -319 327 0
721 -321 327 0
721 -320 325 0
721 -301 280 278 277 281 282 279 0
721 -278 304 302 301 305 306 303 0
721 -279 301 303 0
721 -303 280 278 281 282 279 0
721 -280 304 301 303 0
721 -304 280 278 282 0
721 -281 301 305 303 0
721 -305 278 281 0
721 -282 304 301 306 303 0
721 -306 278 282 0
721 -277 301 0
721 -302 278 0
721 -351 0
721 -67 76 74 73 77 78 75 0
721 -74 70 68 67 71 72 69 0
721 -75 67 69 0
721 -69 76 74 77 78 75 0
721 -76 70 67 69 0
721 -70 76 74 78 0
721 -77 67 71 69 0
721 -71 74 77 0
721 -78 70 67 72 69 0
721 -72 74 78 0
721 -73 67 0
721 -68 74 0
721 -307 256 254 253 257 258 255 0
721 -254 310 308 307 311 312 309 0
721 -255 307 309 0
721 -309 256 254 257 258 255 0
721 -256 310 307 309 0
721 -310 256 254 258 0
721 -257 307 311 309 0
721 -311 254 257 0
721 -258 310 307 312 309 0
721 -312 254 258 0
721 -253 307 0
721 -308 254 0
721 72 0
721 -43 133 0
721 -44 134 0
721 128 -45 135 0
721 -128 -45 133 0
721 -130 -47 135 0
721 -131 -47 135 0
721 -132 -47 137 0
721 -127 -47 135 0
721 -128 -47 133 0
721 -129 -47 135 0
721 -130 -48 135 0
721 -131 -48 135 0
721 -132 -48 138 0
721 -127 -48 135 0
721 -128 -48 133 0
721 -129 -48 135 0
721 -130 -46 136 0
721 -131 -46 137 0
721 -132 -46 136 0
721 -127 -46 135 0
721 -128 -46 133 0
721 -129 -46 135 0
721 -84 0
721 -303 0
721 -81 0
721 132 0
721 -333 0
721 -177 0
721 -289 256 254 253 257 258 255 0
721 -254 292 290 289 293 294 291 0
721 -255 289 291 0
721 -291 256 254 257 258 255 0
721 -256 292 289 291 0
721 -292 256 254 258 0
721 -257 289 293 291 0
721 -293 254 257 0
721 -258 292 289 294 291 0
721 -294 254 258 0
721 -253 289 0
721 -290 254 0
721 -345 0
721 162 0
721 338 0
721 -339 0
721 350 0
721 -85 109 0
721 -86 110 0
721 80 -87 111 0
721 -80 -87 109 0
721 -82 -89 111 0
721 -83 -89 111 0
721 -84 -89 113 0
721 -79 -89 111 0
721 -80 -89 109 0
721 -81 -89 111 0
721 -82 -90 111 0
721 -83 -90 111 0
721 -84 -90 114 0
721 -79 -90 111 0
721 -80 -90 109 0
721 -81 -90 111 0
721 -82 -88 112 0
721 -83 -88 113 0
721 -84 -88 112 0
721 -79 -88 111 0
721 -80 -88 109 0
721 -81 -88 111 0
721 -115 79 0
721 -79 115 0
721 -116 80 0
721 -80 116 0
721 -117 81 0
721 -81 117 0
721 -118 82 0
721 -82 118 0
721 -119 83 0
721 -83 119 0
721 -120 84 0
721 -84 120 0
721 -99 0
721 -93 0
721 -181 166 164 163 167 168 165 0
721 -164 184 182 181 185 186 183 0
721 -165 181 183 0
721 -183 166 164 167 168 165 0
721 -166 184 181 183 0
721 -184 166 164 168 0
721 -167 181 185 183 0
721 -185 164 167 0
721 -168 184 181 186 183 0
721 -186 164 168 0
721 -163 181 0
721 -182 164 0
721 -217 211 0
721 -211 217 0
721 -218 212 0
721 -212 218 0
721 -219 213 0
721 -213 219 0
721 -220 214 0
721 -214 220 0
721 -221 215 0
721 -215 221 0
721 -222 216 0
721 -216 222 0
721 -175 154 152 151 155 156 153 0
721 -152 178 176 175 179 180 177 0
721 -153 175 177 0
721 -177 154 152 155 156 153 0
721 -154 178 175 177 0
721 -178 154 152 156 0
721 -155 175 179 177 0
721 -179 152 155 0
721 -156 178 175 180 177 0
721 -180 152 156 0
721 -151 175 0
721 -176 152 0
721 -139 121 0
721 -121 139 0
721 -140 122 0
721 -122 140 0
721 -141 123 0
721 -123 141 0
721 -142 124 0
721 -124 142 0
721 -143 125 0
721 -125 143 0
721 -144 126 0
721 -126 144 0
721 -91 82 80 79 83 84 81 0
721 -80 94 92 91 95 96 93 0
721 -81 91 93 0
721 -93 82 80 83 84 81 0
721 -82 94 91 93 0
721 -94 82 80 84 0
721 -83 91 95 93 0
721 -95 80 83 0
721 -84 94 91 96 93 0
721 -96 80 84 0
721 -79 91 0
721 -92 80 0
721 -85 352 350 349 353 354 351 0
721 -350 88 86 85 89 90 87 0
721 -351 85 87 0
721 -87 352 350 353 354 351 0
721 -352 88 85 87 0
721 -88 352 350 354 0
721 -353 85 89 87 0
721 -89 350 353 0
721 -354 88 85 90 87 0
721 -90 350 354 0
721 -349 85 0
721 -86 350 0
721 -55 163 0
721 -56 164 0
721 158 -57 165 0
721 -158 -57 163 0
721 -160 -59 165 0
721 -161 -59 165 0
721 -162 -59 167 0
721 -157 -59 165 0
721 -158 -59 163 0
721 -159 -59 165 0
721 -160 -60 165 0
721 -161 -60 165 0
721 -162 -60 168 0
721 -157 -60 165 0
721 -158 -60 163 0
721 -159 -60 165 0
721 -160 -58 166 0
721 -161 -58 167 0
721 -162 -58 166 0
721 -157 -58 165 0
721 -158 -58 163 0
721 -159 -58 165 0
721 -61 169 0
721 -62 170 0
721 158 -63 171 0
721 -158 -63 169 0
721 -160 -65 171 0
721 -161 -65 171 0
721 -162 -65 173 0
721 -157 -65 171 0
721 -158 -65 169 0
721 -159 -65 171 0
721 -160 -66 171 0
721 -161 -66 171 0
721 -162 -66 174 0
721 -157 -66 171 0
721 -158 -66 169 0
721 -159 -66 171 0
721 -160 -64 172 0
721 -161 -64 173 0
721 -162 -64 172 0
721 -157 -64 171 0
721 -158 -64 169 0
721 -159 -64 171 0
721 -295 286 284 283 287 288 285 0
721 -284 298 296 295 299 300 297 0
721 -285 295 297 0
721 -297 286 284 287 288 285 0
721 -286 298 295 297 0
721 -298 286 284 288 0
721 -287 295 299 297 0
721 -299 284 287 0
721 -288 298 295 300 297 0
721 -300 284 288 0
721 -283 295 0
721 -296 284 0
721 -261 0
721 -61 340 338 337 341 342 339 0
721 -338 64 62 61 65 66 63 0
721 -339 61 63 0
721 -63 340 338 341 342 339 0
721 -340 64 61 63 0
721 -64 340 338 342 0
721 -341 61 65 63 0
721 -65 338 341 0
721 -342 64 61 66 63 0
721 -66 338 342 0
721 -337 61 0
721 -62 338 0
721 -319 328 326 325 329 330 327 0
721 -326 322 320 319 323 324 321 0
721 -327 319 321 0
721 -321 328 326 329 330 327 0
721 -328 322 319 321 0
721 -322 328 326 330 0
721 -329 319 323 321 0
721 -323 326 329 0
721 -330 322 319 324 321 0
721 -324 326 330 0
721 -325 319 0
721 -320 326 0
721 -237 0
721 -259 0
721 -133 124 122 121 125 126 123 0
721 -122 136 134 133 137 138 135 0
721 -123 133 135 0
721 -135 124 122 125 126 123 0
721 -124 136 133 135 0
721 -136 124 122 126 0
721 -125 133 137 135 0
721 -137 122 125 0
721 -126 136 133 138 135 0
721 -138 122 126 0
721 -121 133 0
721 -134 122 0
721 -205 214 212 211 215 216 213 0
721 -212 208 206 205 209 210 207 0
721 -213 205 207 0
721 -207 214 212 215 216 213 0
721 -214 208 205 207 0
721 -208 214 212 216 0
721 -215 205 209 207 0
721 -209 212 215 0
721 -216 208 205 210 207 0
721 -210 212 216 0
721 -211 205 0
721 -206 212 0
721 -291 0
721 -70 75 0
721 -71 75 0
721 -72 78 0
721 -67 75 0
721 -69 75 0
721 -68 73 0
721 -80 0
721 -166 183 0
721 -167 183 0
721 -168 186 0
721 -163 183 0
721 -165 183 0
721 -164 181 0
721 -241 238 236 235 239 240 237 0
721 -236 244 242 241 245 246 243 0
721 -237 241 243 0
721 -243 238 236 239 240 237 0
721 -238 244 241 243 0
721 -244 238 236 240 0
721 -239 241 245 243 0
721 -245 236 239 0
721 -240 244 241 246 243 0
721 -246 236 240 0
721 -235 241 0
721 -242 236 0
721 -235 0
721 -265 262 260 259 263 264 261 0
721 -260 268 266 265 269 270 267 0
721 -261 265 267 0
721 -267 262 260 263 264 261 0
721 -262 268 265 267 0
721 -268 262 260 264 0
721 -263 265 269 267 0
721 -269 260 263 0
721 -264 268 265 270 267 0
721 -270 260 264 0
721 -259 265 0
721 -266 260 0
721 -85 97 0
721 -97 85 0
721 -86 98 0
721 -98 86 0
721 -87 99 0
721 -99 87 0
721 -88 100 0
721 -100 88 0
721 -89 101 0
721 -101 89 0
721 -90 102 0
721 -102 90 0
721 -49 211 0
721 -50 212 0
721 200 -51 213 0
721 -200 -51 211 0
721 -202 -53 213 0
721 -203 -53 213 0
721 -204 -53 215 0
721 -199 -53 213 0
721 -200 -53 211 0
721 -201 -53 213 0
721 -202 -54 213 0
721 -203 -54 213 0
721 -204 -54 216 0
721 -199 -54 213 0
721 -200 -54 211 0
721 -201 -54 213 0
721 -202 -52 214 0
721 -203 -52 215 0
721 -204 -52 214 0
721 -199 -52 213 0
721 -200 -52 211 0
721 -201 -52 213 0
721 -253 235 0
721 -235 253 0
721 -254 236 0
721 -236 254 0
721 -255 237 0
721 -237 255 0
721 -256 238 0
721 -238 256 0
721 -257 239 0
721 -239 257 0
721 -258 240 0
721 -240 258 0
721 331 0
721 343 0
721 -55 91 0
721 -56 92 0
721 68 -57 93 0
721 -68 -57 91 0
721 -70 -59 93 0
721 -71 -59 93 0
721 -72 -59 95 0
721 -67 -59 93 0
721 -68 -59 91 0
721 -69 -59 93 0
721 -70 -60 93 0
721 -71 -60 93 0
721 -72 -60 96 0
721 -67 -60 93 0
721 -68 -60 91 0
721 -69 -60 93 0
721 -70 -58 94 0
721 -71 -58 95 0
721 -72 -58 94 0
721 -67 -58 93 0
721 -68 -58 91 0
721 -69 -58 93 0
721 -151 301 0
721 -152 302 0
721 254 -153 303 0
721 -254 -153 301 0
721 -256 -155 303 0
721 -257 -155 303 0
721 -258 -155 305 0
721 -253 -155 303 0
721 -254 -155 301 0
721 -255 -155 303 0
721 -256 -156 303 0
721 -257 -156 303 0
721 -258 -156 306 0
721 -253 -156 303 0
721 -254 -156 301 0
721 -255 -156 303 0
721 -256 -154 304 0
721 -257 -154 305 0
721 -258 -154 304 0
721 -253 -154 303 0
721 -254 -154 301 0
721 -255 -154 303 0
721 -61 97 0
721 -62 98 0
721 68 -63 99 0
721 -68 -63 97 0
721 -70 -65 99 0
721 -71 -65 99 0
721 -72 -65 101 0
721 -67 -65 99 0
721 -68 -65 97 0
721 -69 -65 99 0
721 -70 -66 99 0
721 -71 -66 99 0
721 -72 -66 102 0
721 -67 -66 99 0
721 -68 -66 97 0
721 -69 -66 99 0
721 -70 -64 100 0
721 -71 -64 101 0
721 -72 -64 100 0
721 -67 -64 99 0
721 -68 -64 97 0
721 -69 -64 99 0
721 -157 307 0
721 -158 308 0
721 254 -159 309 0
721 -254 -159 307 0
721 -256 -161 309 0
721 -257 -161 309 0
721 -258 -161 311 0
721 -253 -161 309 0
721 -254 -161 307 0
721 -255 -161 309 0
721 -256 -162 309 0
721 -257 -162 309 0
721 -258 -162 312 0
721 -253 -162 309 0
721 -254 -162 307 0
721 -255 -162 309 0
721 -256 -160 310 0
721 -257 -160 311 0
721 -258 -160 310 0
721 -253 -160 309 0
721 -254 -160 307 0
721 -255 -160 309 0
721 -79 0
721 -145 142 140 139 143 144 141 0
721 -140 148 146 145 149 150 147 0
721 -141 145 147 0
721 -147 142 140 143 144 141 0
721 -142 148 145 147 0
721 -148 142 140 144 0
721 -143 145 149 147 0
721 -149 140 143 0
721 -144 148 145 150 147 0
721 -150 140 144 0
721 -139 145 0
721 -146 140 0
721 -67 247 0
721 -68 248 0
721 236 -69 249 0
721 -236 -69 247 0
721 -238 -71 249 0
721 -239 -71 249 0
721 -240 -71 251 0
721 -235 -71 249 0
721 -236 -71 247 0
721 -237 -71 249 0
721 -238 -72 249 0
721 -239 -72 249 0
721 -240 -72 252 0
721 -235 -72 249 0
721 -236 -72 247 0
721 -237 -72 249 0
721 -238 -70 250 0
721 -239 -70 251 0
721 -240 -70 250 0
721 -235 -70 249 0
721 -236 -70 247 0
721 -237 -70 249 0
721 -67 271 0
721 -68 272 0
721 260 -69 273 0
721 -260 -69 271 0
721 -262 -71 273 0
721 -263 -71 273 0
721 -264 -71 275 0
721 -259 -71 273 0
721 -260 -71 271 0
721 -261 -71 273 0
721 -262 -72 273 0
721 -263 -72 273 0
721 -264 -72 276 0
721 -259 -72 273 0
721 -260 -72 271 0
721 -261 -72 273 0
721 -262 -70 274 0
721 -263 -70 275 0
721 -264 -70 274 0
721 -259 -70 273 0
721 -260 -70 271 0
721 -261 -70 273 0
721 -277 259 0
721 -259 277 0
721 -278 260 0
721 -260 278 0
721 -279 261 0
721 -261 279 0
721 -280 262 0
721 -262 280 0
721 -281 263 0
721 -263 281 0
721 -282 264 0
721 -264 282 0
721 -331 64 62 61 65 66 63 0
721 -62 334 332 331 335 336 333 0
721 -63 331 333 0
721 -333 64 62 65 66 63 0
721 -64 334 331 333 0
721 -334 64 62 66 0
721 -65 331 335 333 0
721 -335 62 65 0
721 -66 334 331 336 333 0
721 -336 62 66 0
721 -61 331 0
721 -332 62 0
721 198 0
721 -260 0
721 -169 175 0
721 -170 176 0
721 164 -171 177 0
721 -164 -171 175 0
721 -166 -173 177 0
721 -167 -173 177 0
721 -168 -173 179 0
721 -163 -173 177 0
721 -164 -173 175 0
721 -165 -173 177 0
721 -166 -174 177 0
721 -167 -174 177 0
721 -168 -174 180 0
721 -163 -174 177 0
721 -164 -174 175 0
721 -165 -174 177 0
721 -166 -172 178 0
721 -167 -172 179 0
721 -168 -172 178 0
721 -163 -172 177 0
721 -164 -172 175 0
721 -165 -172 177 0
721 -343 88 86 85 89 90 87 0
721 -86 346 344 343 347 348 345 0
721 -87 343 345 0
721 -345 88 86 89 90 87 0
721 -88 346 343 345 0
721 -346 88 86 90 0
721 -89 343 347 345 0
721 -347 86 89 0
721 -90 346 343 348 345 0
721 -348 86 90 0
721 -85 343 0
721 -344 86 0
721 230 0
721 -236 0
721 -240 0
721 -145 46 44 43 47 48 45 0
721 -44 148 146 145 149 150 147 0
721 -45 145 147 0
721 -147 46 44 47 48 45 0
721 -46 148 145 147 0
721 -148 46 44 48 0
721 -47 145 149 147 0
721 -149 44 47 0
721 -48 148 145 150 147 0
721 -150 44 48 0
721 -43 145 0
721 -146 44 0
721 -121 289 0
721 -122 290 0
721 284 -123 291 0
721 -284 -123 289 0
721 -286 -125 291 0
721 -287 -125 291 0
721 -288 -125 293 0
721 -283 -125 291 0
721 -284 -125 289 0
721 -285 -125 291 0
721 -286 -126 291 0
721 -287 -126 291 0
721 -288 -126 294 0
721 -283 -126 291 0
721 -284 -126 289 0
721 -285 -126 291 0
721 -286 -124 292 0
721 -287 -124 293 0
721 -288 -124 292 0
721 -283 -124 291 0
721 -284 -124 289 0
721 -285 -124 291 0
721 -264 0
721 -127 295 0
721 -128 296 0
721 284 -129 297 0
721 -284 -129 295 0
721 -286 -131 297 0
721 -287 -131 297 0
721 -288 -131 299 0
721 -283 -131 297 0
721 -284 -131 295 0
721 -285 -131 297 0
721 -286 -132 297 0
721 -287 -132 297 0
721 -288 -132 300 0
721 -283 -132 297 0
721 -284 -132 295 0
721 -285 -132 297 0
721 -286 -130 298 0
721 -287 -130 299 0
721 -288 -130 298 0
721 -283 -130 297 0
721 -284 -130 295 0
721 -285 -130 297 0
721 188 0
721 288 0
721 -43 199 0
721 -44 200 0
721 194 -45 201 0
721 -194 -45 199 0
721 -196 -47 201 0
721 -197 -47 201 0
721 -198 -47 203 0
721 -193 -47 201 0
721 -194 -47 199 0
721 -195 -47 201 0
721 -196 -48 201 0
721 -197 -48 201 0
721 -198 -48 204 0
721 -193 -48 201 0
721 -194 -48 199 0
721 -195 -48 201 0
721 -196 -46 202 0
721 -197 -46 203 0
721 -198 -46 202 0
721 -193 -46 201 0
721 -194 -46 199 0
721 -195 -46 201 0
721 -135 0
721 -49 223 0
721 -50 224 0
721 194 -51 225 0
721 -194 -51 223 0
721 -196 -53 225 0
721 -197 -53 225 0
721 -198 -53 227 0
721 -193 -53 225 0
721 -194 -53 223 0
721 -195 -53 225 0
721 -196 -54 225 0
721 -197 -54 225 0
721 -198 -54 228 0
721 -193 -54 225 0
721 -194 -54 223 0
721 -195 -54 225 0
721 -196 -52 226 0
721 -197 -52 227 0
721 -198 -52 226 0
721 -193 -52 225 0
721 -194 -52 223 0
721 -195 -52 225 0
721 324 0
721 43 44 45 46 47 48 0
721 -43 -44 0
721 -43 -45 0
721 -43 -46 0
721 -43 -47 0
721 -43 -48 0
721 -44 -45 0
721 -44 -46 0
721 -44 -47 0
721 -44 -48 0
721 -45 -46 0
721 -45 -47 0
721 -45 -48 0
721 -46 -47 0
721 -46 -48 0
721 -47 -48 0
721 49 50 51 52 53 54 0
721 -49 -50 0
721 -49 -51 0
721 -49 -52 0
721 -49 -53 0
721 -49 -54 0
721 -50 -51 0
721 -50 -52 0
721 -50 -53 0
721 -50 -54 0
721 -51 -52 0
721 -51 -53 0
721 -51 -54 0
721 -52 -53 0
721 -52 -54 0
721 -53 -54 0
721 55 56 57 58 59 60 0
721 -55 -56 0
721 -55 -57 0
721 -55 -58 0
721 -55 -59 0
721 -55 -60 0
721 -56 -57 0
721 -56 -58 0
721 -56 -59 0
721 -56 -60 0
721 -57 -58 0
721 -57 -59 0
721 -57 -60 0
721 -58 -59 0
721 -58 -60 0
721 -59 -60 0
721 61 62 63 64 65 66 0
721 -61 -62 0
721 -61 -63 0
721 -61 -64 0
721 -61 -65 0
721 -61 -66 0
721 -62 -63 0
721 -62 -64 0
721 -62 -65 0
721 -62 -66 0
721 -63 -64 0
721 -63 -65 0
721 -63 -66 0
721 -64 -65 0
721 -64 -66 0
721 -65 -66 0
721 67 68 69 70 71 72 0
721 -67 -68 0
721 -67 -69 0
721 -67 -70 0
721 -67 -71 0
721 -67 -72 0
721 -68 -69 0
721 -68 -70 0
721 -68 -71 0
721 -68 -72 0
721 -69 -70 0
721 -69 -71 0
721 -69 -72 0
721 -70 -71 0
721 -70 -72 0
721 -71 -72 0
721 73 74 75 76 77 78 0
721 -73 -74 0
721 -73 -75 0
721 -73 -76 0
721 -73 -77 0
721 -73 -78 0
721 -74 -75 0
721 -74 -76 0
721 -74 -77 0
721 -74 -78 0
721 -75 -76 0
721 -75 -77 0
721 -75 -78 0
721 -76 -77 0
721 -76 -78 0
721 -77 -78 0
721 79 80 81 82 83 84 0
721 -79 -80 0
721 -79 -81 0
721 -79 -82 0
721 -79 -83 0
721 -79 -84 0
721 -80 -81 0
721 -80 -82 0
721 -80 -83 0
721 -80 -84 0
721 -81 -82 0
721 -81 -83 0
721 -81 -84 0
721 -82 -83 0
721 -82 -84 0
721 -83 -84 0
721 85 86 87 88 89 90 0
721 -85 -86 0
721 -85 -87 0
721 -85 -88 0
721 -85 -89 0
721 -85 -90 0
721 -86 -87 0
721 -86 -88 0
721 -86 -89 0
721 -86 -90 0
721 -87 -88 0
721 -87 -89 0
721 -87 -90 0
721 -88 -89 0
721 -88 -90 0
721 -89 -90 0
721 91 92 93 94 95 96 0
721 -91 -92 0
721 -91 -93 0
721 -91 -94 0
721 -91 -95 0
721 -91 -96 0
721 -92 -93 0
721 -92 -94 0
721 -92 -95 0
721 -92 -96 0
721 -93 -94 0
721 -93 -95 0
721 -93 -96 0
721 -94 -95 0
721 -94 -96 0
721 -95 -96 0
721 97 98 99 100 101 102 0
721 -97 -98 0
721 -97 -99 0
721 -97 -100 0
721 -97 -101 0
721 -97 -102 0
721 -98 -99 0
721 -98 -100 0
721 -98 -101 0
721 -98 -102 0
721 -99 -100 0
721 -99 -101 0
721 -99 -102 0
721 -100 -101 0
721 -100 -102 0
721 -101 -102 0
721 103 104 105 106 107 108 0
721 -103 -104 0
721 -103 -105 0
721 -103 -106 0
721 -103 -107 0
721 -103 -108 0
721 -104 -105 0
721 -104 -106 0
721 -104 -107 0
721 -104 -108 0
721 -105 -106 0
721 -105 -107 0
721 -105 -108 0
721 -106 -107 0
721 -106 -108 0
721 -107 -108 0
721 109 110 111 112 113 114 0
721 -109 -110 0
721 -109 -111 0
721 -109 -112 0
721 -109 -113 0
721 -109 -114 0
721 -110 -111 0
721 -110 -112 0
721 -110 -113 0
721 -110 -114 0
721 -111 -112 0
721 -111 -113 0
721 -111 -114 0
721 -112 -113 0
721 -112 -114 0
721 -113 -114 0
721 115 116 117 118 119 120 0
721 -115 -116 0
721 -115 -117 0
721 -115 -118 0
721 -115 -119 0
721 -115 -120 0
721 -116 -117 0
721 -116 -118 0
721 -116 -119 0
721 -116 -120 0
721 -117 -118 0
721 -117 -119 0
721 -117 -120 0
721 -118 -119 0
721 -118 -120 0
721 -119 -120 0
721 121 122 123 124 125 126 0
721 -121 -122 0
721 -121 -123 0
721 -121 -124 0
721 -121 -125 0
721 -121 -126 0
721 -122 -123 0
721 -122 -124 0
721 -122 -125 0
721 -122 -126 0
721 -123 -124 0
721 -123 -125 0
721 -123 -126 0
721 -124 -125 0
721 -124 -126 0
721 -125 -126 0
721 127 128 129 130 131 132 0
721 -127 -128 0
721 -127 -129 0
721 -127 -130 0
721 -127 -131 0
721 -127 -132 0
721 -128 -129 0
721 -128 -130 0
721 -128 -131 0
721 -128 -132 0
721 -129 -130 0
721 -129 -131 0
721 -129 -132 0
721 -130 -131 0
721 -130 -132 0
721 -131 -132 0
721 133 134 135 136 137 138 0
721 -133 -134 0
721 -133 -135 0
721 -133 -136 0
721 -133 -137 0
721 -133 -138 0
721 -134 -135 0
721 -134 -136 0
721 -134 -137 0
721 -134 -138 0
721 -135 -136 0
721 -135 -137 0
721 -135 -138 0
721 -136 -137 0
721 -136 -138 0
721 -137 -138 0
721 139 140 141 142 143 144 0
721 -139 -140 0
721 -139 -141 0
721 -139 -142 0
721 -139 -143 0
721 -139 -144 0
721 -140 -141 0
721 -140 -142 0
721 -140 -143 0
721 -140 -144 0
721 -141 -142 0
721 -141 -143 0
721 -141 -144 0
721 -142 -143 0
721 -142 -144 0
721 -143 -144 0
721 145 146 147 148 149 150 0
721 -145 -146 0
721 -145 -147 0
721 -145 -148 0
721 -145 -149 0
721 -145 -150 0
721 -146 -147 0
721 -146 -148 0
721 -146 -149 0
721 -146 -150 0
721 -147 -148 0
721 -147 -149 0
721 -147 -150 0
721 -148 -149 0
721 -148 -150 0
721 -149 -150 0
721 151 152 153 154 155 156 0
721 -151 -152 0
721 -151 -153 0
721 -151 -154 0
721 -151 -155 0
721 -151 -156 0
721 -152 -153 0
721 -152 -154 0
721 -152 -155 0
721 -152 -156 0
721 -153 -154 0
721 -153 -155 0
721 -153 -156 0
721 -154 -155 0
721 -154 -156 0
721 -155 -156 0
721 157 158 159 160 161 162 0
721 -157 -158 0
721 -157 -159 0
721 -157 -160 0
721 -157 -161 0
721 -157 -162 0
721 -158 -159 0
721 -158 -160 0
721 -158 -161 0
721 -158 -162 0
721 -159 -160 0
721 -159 -161 0
721 -159 -162 0
721 -160 -161 0
721 -160 -162 0
721 -161 -162 0
721 163 164 165 166 167 168 0
721 -163 -164 0
721 -163 -165 0
721 -163 -166 0
721 -163 -167 0
721 -163 -168 0
721 -164 -165 0
721 -164 -166 0
721 -164 -167 0
721 -164 -168 0
721 -165 -166 0
721 -165 -167 0
721 -165 -168 0
721 -166 -167 0
721 -166 -168 0
721 -167 -168 0
721 169 170 171 172 173 174 0
721 -169 -170 0
721 -169 -171 0
721 -169 -172 0
721 -169 -173 0
721 -169 -174 0
721 -170 -171 0
721 -170 -172 0
721 -170 -173 0
721 -170 -174 0
721 -171 -172 0
721 -171 -173 0
721 -171 -174 0
721 -172 -173 0
721 -172 -174 0
721 -173 -174 0
721 175 176 177 178 179 180 0
721 -175 -176 0
721 -175 -177 0
721 -175 -178 0
721 -175 -179 0
721 -175 -180 0
721 -176 -177 0
721 -176 -178 0
721 -176 -179 0
721 -176 -180 0
721 -177 -178 0
721 -177 -179 0
721 -177 -180 0
721 -178 -179 0
721 -178 -180 0
721 -179 -180 0
721 181 182 183 184 185 186 0
721 -181 -182 0
721 -181 -183 0
721 -181 -184 0
721 -181 -185 0
721 -181 -186 0
721 -182 -183 0
721 -182 -184 0
721 -182 -185 0
721 -182 -186 0
721 -183 -184 0
721 -183 -185 0
721 -183 -186 0
721 -184 -185 0
721 -184 -186 0
721 -185 -186 0
721 187 188 189 190 191 192 0
721 -187 -188 0
721 -187 -189 0
721 -187 -190 0
721 -187 -191 0
721 -187 -192 0
721 -188 -189 0
721 -188 -190 0
721 -188 -191 0
721 -188 -192 0
721 -189 -190 0
721 -189 -191 0
721 -189 -192 0
721 -190 -191 0
721 -190 -192 0
721 -191 -192 0
721 193 194 195 196 197 198 0
721 -193 -194 0
721 -193 -195 0
721 -193 -196 0
721 -193 -197 0
721 -193 -198 0
721 -194 -195 0
721 -194 -196 0
721 -194 -197 0
721 -194 -198 0
721 -195 -196 0
721 -195 -197 0
721 -195 -198 0
721 -196 -197 0
721 -196 -198 0
721 -197 -198 0
721 199 200 201 202 203 204 0
721 -199 -200 0
721 -199 -201 0
721 -199 -202 0
721 -199 -203 0
721 -199 -204 0
721 -200 -201 0
721 -200 -202 0
721 -200 -203 0
721 -200 -204 0
721 -201 -202 0
721 -201 -203 0
721 -201 -204 0
721 -202 -203 0
721 -202 -204 0
721 -203 -204 0
721 205 206 207 208 209 210 0
721 -205 -206 0
721 -205 -207 0
721 -205 -208 0
721 -205 -209 0
721 -205 -210 0
721 -206 -207 0
721 -206 -208 0
721 -206 -209 0
721 -206 -210 0
721 -207 -208 0
721 -207 -209 0
721 -207 -210 0
721 -208 -209 0
721 -208 -210 0
721 -209 -210 0
721 211 212 213 214 215 216 0
721 -211 -212 0
721 -211 -213 0
721 -211 -214 0
721 -211 -215 0
721 -211 -216 0
721 -212 -213 0
721 -212 -214 0
721 -212 -215 0
721 -212 -216 0
721 -213 -214 0
721 -213 -215 0
721 -213 -216 0
721 -214 -215 0
721 -214 -216 0
721 -215 -216 0
721 217 218 219 220 221 222 0
721 -217 -218 0
721 -217 -219 0
721 -217 -220 0
721 -217 -221 0
721 -217 -222 0
721 -218 -219 0
721 -218 -220 0
721 -218 -221 0
721 -218 -222 0
721 -219 -220 0
721 -219 -221 0
721 -219 -222 0
721 -220 -221 0
721 -220 -222 0
721 -221 -222 0
721 223 224 225 226 227 228 0
721 -223 -224 0
721 -223 -225 0
721 -223 -226 0
721 -223 -227 0
721 -223 -228 0
721 -224 -225 0
721 -224 -226 0
721 -224 -227 0
721 -224 -228 0
721 -225 -226 0
721 -225 -227 0
721 -225 -228 0
721 -226 -227 0
721 -226 -228 0
721 -227 -228 0
721 229 230 231 232 233 234 0
721 -229 -230 0
721 -229 -231 0
721 -229 -232 0
721 -229 -233 0
721 -229 -234 0
721 -230 -231 0
721 -230 -232 0
721 -230 -233 0
721 -230 -234 0
721 -231 -232 0
721 -231 -233 0
721 -231 -234 0
721 -232 -233 0
721 -232 -234 0
721 -233 -234 0
721 235 236 237 238 239 240 0
721 -235 -236 0
721 -235 -237 0
721 -235 -238 0
721 -235 -239 0
721 -235 -240 0
721 -236 -237 0
721 -236 -238 0
721 -236 -239 0
721 -236 -240 0
721 -237 -238 0
721 -237 -239 0
721 -237 -240 0
721 -238 -239 0
721 -238 -240 0
721 -239 -240 0
721 241 242 243 244 245 246 0
721 -241 -242 0
721 -241 -243 0
721 -241 -244 0
721 -241 -245 0
721 -241 -246 0
721 -242 -243 0
721 -242 -244 0
721 -242 -245 0
721 -242 -246 0
721 -243 -244 0
721 -243 -245 0
721 -243 -246 0
721 -244 -245 0
721 -244 -246 0
721 -245 -246 0
721 247 248 249 250 251 252 0
721 -247 -248 0
721 -247 -249 0
721 -247 -250 0
721 -247 -251 0
721 -247 -252 0
721 -248 -249 0
721 -248 -250 0
721 -248 -251 0
721 -248 -252 0
721 -249 -250 0
721 -249 -251 0
721 -249 -252 0
721 -250 -251 0
721 -250 -252 0
721 -251 -252 0
721 253 254 255 256 257 258 0
721 -253 -254 0
721 -253 -255 0
721 -253 -256 0
721 -253 -257 0
721 -253 -258 0
721 -254 -255 0
721 -254 -256 0
721 -254 -257 0
721 -254 -258 0
721 -255 -256 0
721 -255 -257 0
721 -255 -258 0
721 -256 -257 0
721 -256 -258 0
721 -257 -258 0
721 259 260 261 262 263 264 0
721 -259 -260 0
721 -259 -261 0
721 -259 -262 0
721 -259 -263 0
721 -259 -264 0
721 -260 -261 0
721 -260 -262 0
721 -260 -263 0
721 -260 -264 0
721 -261 -262 0
721 -261 -263 0
721 -261 -264 0
721 -262 -263 0
721 -262 -264 0
721 -263 -264 0
721 265 266 267 268 269 270 0
721 -265 -266 0
721 -265 -267 0
721 -265 -268 0
721 -265 -269 0
721 -265 -270 0
721 -266 -267 0
721 -266 -268 0
721 -266 -269 0
721 -266 -270 0
721 -267 -268 0
721 -267 -269 0
721 -267 -270 0
721 -268 -269 0
721 -268 -270 0
721 -269 -270 0
721 271 272 273 274 275 276 0
721 -271 -272 0
721 -271 -273 0
721 -271 -274 0
721 -271 -275 0
721 -271 -276 0
721 -272 -273 0
721 -272 -274 0
721 -272 -275 0
721 -272 -276 0
721 -273 -274 0
721 -273 -275 0
721 -273 -276 0
721 -274 -275 0
721 -274 -276 0
721 -275 -276 0
721 277 278 279 280 281 282 0
721 -277 -278 0
721 -277 -279 0
721 -277 -280 0
721 -277 -281 0
721 -277 -282 0
721 -278 -279 0
721 -278 -280 0
721 -278 -281 0
721 -278 -282 0
721 -279 -280 0
721 -279 -281 0
721 -279 -282 0
721 -280 -281 0
721 -280 -282 0
721 -281 -282 0
721 283 284 285 286 287 288 0
721 -283 -284 0
721 -283 -285 0
721 -283 -286 0
721 -283 -287 0
721 -283 -288 0
721 -284 -285 0
721 -284 -286 0
721 -284 -287 0
721 -284 -288 0
721 -285 -286 0
721 -285 -287 0
721 -285 -288 0
721 -286 -287 0
721 -286 -288 0
721 -287 -288 0
721 289 290 291 292 293 294 0
721 -289 -290 0
721 -289 -291 0
721 -289 -292 0
721 -289 -293 0
721 -289 -294 0
721 -290 -291 0
721 -290 -292 0
721 -290 -293 0
721 -290 -294 0
721 -291 -292 0
721 -291 -293 0
721 -291 -294 0
721 -292 -293 0
721 -292 -294 0
721 -293 -294 0
721 295 296 297 298 299 300 0
721 -295 -296 0
721 -295 -297 0
721 -295 -298 0
721 -295 -299 0
721 -295 -300 0
721 -296 -297 0
721 -296 -298 0
721 -296 -299 0
721 -296 -300 0
721 -297 -298 0
721 -297 -299 0
721 -297 -300 0
721 -298 -299 0
721 -298 -300 0
721 -299 -300 0
721 301 302 303 304 305 306 0
721 -301 -302 0
721 -301 -303 0
721 -301 -304 0
721 -301 -305 0
721 -301 -306 0
721 -302 -303 0
721 -302 -304 0
721 -302 -305 0
721 -302 -306 0
721 -303 -304 0
721 -303 -305 0
721 -303 -306 0
721 -304 -305 0
721 -304 -306 0
721 -305 -306 0
721 307 308 309 310 311 312 0
721 -307 -308 0
721 -307 -309 0
721 -307 -310 0
721 -307 -311 0
721 -307 -312 0
721 -308 -309 0
721 -308 -310 0
721 -308 -311 0
721 -308 -312 0
721 -309 -310 0
721 -309 -311 0
721 -309 -312 0
721 -310 -311 0
721 -310 -312 0
721 -311 -312 0
721 319 320 321 322 323 324 0
721 -319 -320 0
721 -319 -321 0
721 -319 -322 0
721 -319 -323 0
721 -319 -324 0
721 -320 -321 0
721 -320 -322 0
721 -320 -323 0
721 -320 -324 0
721 -321 -322 0
721 -321 -323 0
721 -321 -324 0
721 -322 -323 0
721 -322 -324 0
721 -323 -324 0
721 325 326 327 328 329 330 0
721 -325 -326 0
721 -325 -327 0
721 -325 -328 0
721 -325 -329 0
721 -325 -330 0
721 -326 -327 0
721 -326 -328 0
721 -326 -329 0
721 -326 -330 0
721 -327 -328 0
721 -327 -329 0
721 -327 -330 0
721 -328 -329 0
721 -328 -330 0
721 -329 -330 0
721 331 332 333 334 335 336 0
721 -331 -332 0
721 -331 -333 0
721 -331 -334 0
721 -331 -335 0
721 -331 -336 0
721 -332 -333 0
721 -332 -334 0
721 -332 -335 0
721 -332 -336 0
721 -333 -334 0
721 -333 -335 0
721 -333 -336 0
721 -334 -335 0
721 -334 -336 0
721 -335 -336 0
721 337 338 339 340 341 342 0
721 -337 -338 0
721 -337 -339 0
721 -337 -340 0
721 -337 -341 0
721 -337 -342 0
721 -338 -339 0
721 -338 -340 0
721 -338 -341 0
721 -338 -342 0
721 -339 -340 0
721 -339 -341 0
721 -339 -342 0
721 -340 -341 0
721 -340 -342 0
721 -341 -342 0
721 343 344 345 346 347 348 0
721 -343 -344 0
721 -343 -345 0
721 -343 -346 0
721 -343 -347 0
721 -343 -348 0
721 -344 -345 0
721 -344 -346 0
721 -344 -347 0
721 -344 -348 0
721 -345 -346 0
721 -345 -347 0
721 -345 -348 0
721 -346 -347 0
721 -346 -348 0
721 -347 -348 0
721 349 350 351 352 353 354 0
721 -349 -350 0
721 -349 -351 0
721 -349 -352 0
721 -349 -353 0
721 -349 -354 0
721 -350 -351 0
721 -350 -352 0
721 -350 -353 0
721 -350 -354 0
721 -351 -352 0
721 -351 -353 0
721 -351 -354 0
721 -352 -353 0
721 -352 -354 0
721 -353 -354 0
100 59 0
100 47 0
100 221 0
100 233 0
100 257 0
100 281 0
100 53 0
100 125 0
100 155 0
